p cnf 10 45
-6 10 4 0
7 3 6 0
5 4 -8 0
3 -2 4 0
10 1 -6 0
3 9 10 0
4 1 10 0
3 2 5 0
-2 3 7 0
9 6 4 0
4 1 10 0
7 8 2 0
10 -2 -4 0
-2 -9 3 0
3 5 1 0
-6 4 -2 0
7 1 -2 0
7 9 -2 0
3 1 10 0
6 -3 8 0
-2 -6 8 0
8 3 9 0
-2 4 5 0
9 8 1 0
8 10 3 0
5 -9 8 0
10 9 2 0
-9 7 -6 0
8 9 1 0
8 1 5 0
4 9 3 0
4 8 3 0
4 5 -6 0
10 -2 -6 0
8 4 -6 0
9 1 -4 0
3 9 8 0
2 4 -6 0
9 4 -1 0
10 8 -2 0
9 5 7 0
1 9 3 0
1 10 5 0
7 8 -6 0
10 -7 -6 0
%
0